11193.0 1129823.0 
10990.0 1148426.0 
11191.0 1132110.0 
11173.0 1132665.0 
10997.0 1147952.0 
11007.0 1145888.0 
11030.0 1138391.0 
11058.0 1135012.0 
11020.0 1139545.0 
11018.0 1139992.0 
11116.0 1133409.0 
10978.0 1152853.0 
11266.0 1128922.0 
11188.0 1132514.0 
